400
[44,67,69,79,80,81,88,93,94,116,117,122,128,137,141,142,143,144,148,149,157,161,164,169,170,171,176,177,191,195,207,210,214,218,221,237,238,242,244,248,250,251,255,268,271,279]
[1,1,1,1,2,1,1,1,1,1,1,1,1,1,1,1,1,1,1,2,1,1,2,1,1,1,1,1,1,1,1,1,1,1,1,1,1,1,1,1,1,2,1,1,1,1]
